Traveling Salesman Problem/TSP_generados/Aleatorio1620391460_15.tsp
NAME: Aleatorio1620391460_15.tsp
COMMENT: Randomly generated scenario
TYPE: TSP
DIMENSION: 15
EDGE_WEIGHT_TYPE: ATT
NODE_COORD_SECTION
1 6.08 49.42
2 21.66 13.06
3 29.02 46.27
4 34.93 33.19
5 40.96 33.15
6 26.63 23.93
7 44.2 19.77
8 40.01 3.85
9 9.92 24.1
10 21.21 34.69
11 32.44 27.88
12 43.39 38.55
13 15.25 11.83
14 2.0 23.92
15 30.68 0.02
