Traveling Salesman Problem/TSP_generados/Aleatorio1620391460_15.opt.tour
NAME: Aleatorio1620391460_15.opt.tour
COMMENT: Optimal solution for Aleatorio1620391460_15 (187.8188311660434)
TYPE: TOUR
DIMENSION: 15
TOUR_SECTION
1 3 10 6 11 4 12 5 7 8 15 2 13 9 14
-1
EOF
